*Heading
 /Users/austinpham/TrixiManifolds.jl/examples/sphere.inp
*NODE
1, 6.1232339957368e-17, -1.4997597826619e-32, 1
2, 6.1232339957368e-17, -1.4997597826619e-32, -1
3, 0.30901699437495, -7.5687334608683e-17, -0.95105651629515
4, 0.58778525229247, -1.439658655612e-16, -0.80901699437495
5, 0.80901699437495, -1.9815201452342e-16, -0.58778525229247
6, 0.95105651629515, -2.3294166369782e-16, -0.30901699437495
7, 1, -2.4492935982947e-16, -2.4492935982947e-16
8, 0.95105651629515, -2.3294166369782e-16, 0.30901699437495
9, 0.80901699437495, -1.9815201452342e-16, 0.58778525229247
10, 0.58778525229247, -1.439658655612e-16, 0.80901699437495
11, 0.30901699437495, -7.5687334608683e-17, 0.95105651629515
12, 0.15643446504023, -3.8315393377569e-17, -0.98768834059514
13, 0.45399049973955, -1.1119560246987e-16, -0.89100652418837
14, 0.70710678118655, -1.731912112471e-16, -0.70710678118655
15, 0.89100652418837, -2.1823365757334e-16, -0.45399049973955
16, 0.98768834059514, -2.41913872973e-16, -0.15643446504023
17, 0.98768834059514, -2.41913872973e-16, 0.15643446504023
18, 0.89100652418837, -2.1823365757334e-16, 0.45399049973955
19, 0.70710678118655, -1.731912112471e-16, 0.70710678118655
20, 0.45399049973955, -1.1119560246987e-16, 0.89100652418837
21, 0.15643446504023, -3.831539337757e-17, 0.98768834059514
22, 0.35692701924887, 0.28055387501135, -0.89100652418837
23, 0.3889462625002, 0.23415417728687, 0.89100652418837
24, 0.94616088419219, 0.28345005710652, -0.15631905306443
25, 0.8579604780798, 0.2698172279021, 0.43715269824206
26, 0.67731649910013, 0.31079008102357, -0.66682222937159
27, 0.45053506221279, 0.60733673859293, -0.65433954769081
28, 0.95180184159733, -0.26785873540494, -0.14941536801549
29, 0.68088129050817, -0.26981722790305, 0.68088129050712
30, 0.43715269829247, -0.26981722793544, -0.85796047804363
31, 0.15063255405036, -0.26981722790199, 0.95105651629519
32, 0.66669070120323, 0.61263451068643, -0.42450260923244
33, 0.43579915545577, 0.81504207989186, -0.3818186796237
34, 0.5475434786247, 0.82259373691499, -0.15341343814602
35, 0.57975698124537, 0.80922018206184, 0.095102784612519
36, 0.3133673915333, 0.9441272992947, 0.10210054186984
37, 0.31178321164849, 0.89000419533408, 0.33269169094207
38, 0.1085153815233, 0.93576518136486, 0.33551145631416
39, 0.26153782039038, 0.7702807506263, 0.58160599525798
40, -0.013750663574376, 0.87596386257146, 0.48218070338841
41, -0.22370801858351, 0.90871959980893, 0.35239666761269
42, -0.3754007556742, 0.77851743791573, 0.50297601483605
43, -0.40726691293091, 0.89081673188027, 0.20144282522316
44, -0.55137082876367, 0.7536142279803, 0.35784885716475
45, -0.71520821929341, 0.67272973867262, 0.1895043581573
46, -0.80995130228305, 0.46790751988459, 0.35361199182924
47, -0.83230596890108, 0.55416955473245, -0.012762395514368
48, -0.93852135245309, 0.31888055702123, 0.13226058121549
49, -0.9784086694689, 0.18108980068347, -0.099614053207958
50, -0.99673239653413, -0.075234436383221, -0.029399137426731
51, -0.9747813261008, -0.10356313038722, -0.19767661548488
52, -0.93546356575142, -0.35100472278979, -0.041274710548859
53, -0.88720064295527, 0.40266826154535, -0.22524051652357
54, -0.92227736961487, -0.28728172379923, -0.25859942897699
55, -0.75769078924068, -0.64788632133769, -0.078409071690376
56, -0.8000516933108, -0.58483751145444, 0.13372499103117
57, -0.56870493208258, -0.82041147239689, 0.059158399103711
58, -0.57279579525186, -0.79491735311615, -0.20002844461877
59, -0.43021337080836, -0.89604192510534, -0.10966003844261
60, 0.17754221143829, 0.51256969803689, -0.84008991650416
61, -0.81589630349816, 0.23321934846372, 0.52907651378623
62, 0.26968665051734, 0.91171443291918, -0.30991273503941
63, -0.41454932563551, -0.89815197986352, 0.14653285530006
64, -0.19592965568219, -0.98006491758034, 0.032929126203162
65, -0.11034025118096, -0.98051474975794, -0.16252954954851
66, 0.18694626186104, -0.98186769355688, 0.031415402678866
67, 0.097692696942958, -0.96988906928662, 0.22309489066842
68, 0.40130831112555, -0.89831810678303, 0.17881895438491
69, 0.45510581756011, -0.8861378453864, -0.08739801941056
70, -0.46820660051261, 0.65534148443528, 0.59271419589427
71, -0.89020511315382, -0.1535137365457, -0.42891536368679
72, -0.72267244829354, -0.39173186943428, -0.56946525350275
73, -0.7394945613634, -0.16679996559609, -0.6521698898225
74, -0.50691665301178, -0.41040946948174, -0.75802346550687
75, -0.55937835600756, 0.82835702169058, 0.030339733785891
76, 0.22694713691016, -0.91616268663012, 0.33036484176582
77, -0.00071780709419127, -0.89157956141428, 0.45286352295288
78, -0.61318926924243, -0.16028636429528, -0.77350320070891
79, -0.69866059099519, 0.10474544507218, -0.70774414185275
80, 0.57069238061375, -0.77232075566079, 0.27898182214073
81, 0.13718058359169, -0.77493464055097, 0.61697470803882
82, -0.12112197206538, -0.74040911468829, 0.66115339428116
83, 0.021927890062419, 0.61600990187278, 0.78743315172279
84, -0.53662451047521, -0.62154550751688, -0.57071474209348
85, -0.35101209668997, -0.64158401675631, -0.68202672779015
86, -0.1842080485834, -0.80803113560806, -0.55960082087595
87, 0.094061142079447, -0.74468344233675, -0.66075643943907
88, -0.25638283424442, -0.79163708686628, 0.5545976604735
89, -0.47970968319613, -0.58191985180952, 0.65669468241936
90, -0.57012476324882, -0.64205926968244, 0.51255989751964
91, -0.63810838987004, -0.29496275902711, 0.71120647744841
92, 0.49500081271628, 0.70966622540173, 0.50134623159478
93, -0.49405828406265, 0.15306246232635, -0.85584945789296
94, -0.47000341335583, 0.55191140475461, -0.68883277559627
95, -0.741718641362, 0.37883206248001, -0.55347965228476
96, -0.50137631459961, 0.73859616650402, -0.45066339321503
97, -0.22248131746474, 0.85765673344632, -0.46360219041041
98, 0.68088129050783, 0.26981722790209, 0.68088129050784
99, -0.74341673719492, -0.015428857548587, 0.66865051051592
100, -0.39947201264334, 0.1474744774783, 0.90480571926087
101, 0.80074359545234, 0.58846917161794, 0.11186477728648
102, -0.03156284524879, -0.58305072989231, -0.81182241480009
103, -0.85953226778989, -0.16909085782583, 0.48229924572582
104, -0.028103478027916, -0.9163246210057, -0.39944884961843
105, 0.23985473976104, -0.83265942188635, -0.49914726379902
106, 0.37862646699743, 0.53668610428594, 0.75406234752534
107, 0.85303113130516, 0.2591113631171, -0.45298917263864
108, -0.5906372286274, 0.41060116417558, 0.69466131901597
109, 0.94670754722786, 0.28969750882869, 0.14078413760172
110, 0.42782424775094, -0.26304869250307, 0.86473799408188
111, 0.95043843060207, -0.267439709765, 0.15856478573595
112, 0.83643700679054, -0.52855398385227, -0.14492694651163
113, 0.77141209685372, -0.49609248115994, -0.3985167837925
114, 0.8303220881626, -0.54447882760519, 0.11877725455226
115, 0.66142943287453, -0.73819506705419, -0.13258638053791
116, 0.59969104633053, -0.71433447267561, -0.36068949263632
117, 0.68318454685901, -0.44636822162343, -0.57793969032918
118, 0.85271045398159, -0.24593506079899, 0.460869642676
119, 0.73923129447312, 0.56255152535251, 0.37023354061345
120, 0.56473385586552, -0.59229274175544, 0.57468685395011
121, 0.74150941588374, -0.56362487812619, 0.36399283360115
122, -0.77330182794619, -0.45804447326319, 0.43840568359468
123, -0.90154781925669, -0.38796217311662, 0.19156430206106
124, -0.26413019104774, 0.96177249751267, 0.072311169298588
125, -0.01861825711736, 0.98898477116991, 0.14684169331598
126, 0.29071137334425, 0.94728603638379, -0.13467019967532
127, -0.091559294541866, 0.55332739063065, -0.82791647788945
128, -0.2775983592352, -0.51369732193941, 0.81182153973777
129, -0.7734713726182, -0.54005040656438, -0.33179450584625
130, 0.096056486388277, -0.97208689642036, -0.21405657483614
131, -0.11568590713189, -0.95532756713111, 0.27196692881752
132, -0.82716735485038, -0.010228936536373, -0.56186255964173
133, -0.25936850820258, -0.92865704138722, -0.26518687078114
134, -0.95773274735595, 0.030476415343427, -0.28604050893159
135, -0.68046378879249, -0.69442880237999, 0.23396083126726
136, -0.67071182949308, 0.72544384048986, -0.15452144211525
137, 0.28695469150294, -0.63593129196178, -0.7164135655669
138, -0.3097482226777, -0.38050933895843, -0.87136024783864
139, -0.18890390906562, 0.73546429604958, 0.65069776576843
140, 0.78004839072475, 0.60486875087755, -0.16018209119489
141, 0.22175965176843, 0.79299498460883, -0.56743423516104
142, 0.862352525887, -0.24797015856021, -0.44142827453612
143, -0.72887876114815, 0.58587470724747, -0.35424084879476
144, 0.060884399213039, 0.22153379753385, -0.97325015616885
145, -0.3229345298715, -0.075665719301362, 0.94339174701673
146, 0.27503960790153, -0.62872154861108, 0.72736677707843
147, -0.51892216508788, 0.81466842152888, -0.25891147047622
148, -0.29666804485515, -0.10693843791823, -0.94897431032533
149, 0.38862795519759, -0.80150421333148, 0.45448796293283
150, 0.49456304137607, -0.61856959282657, -0.61055635033568
151, -0.37203858585287, 0.56169933050271, 0.73897303925746
152, 0.69178848856681, -0.20702022648259, -0.6917884885668
153, 0.54605523666883, 0.76717871686234, 0.33654196603098
154, 0.10125406108936, 0.21456878663692, 0.97144626764123
155, -0.96165883955862, -0.022992520644198, 0.2732830406249
156, 0.0087645680892756, 0.98968154765077, -0.14301614099742
157, -0.11078700880245, 0.23334837999754, 0.96606147435509
158, 0.36366042759279, -0.88368669479709, -0.29470140624303
159, 0.65729040063663, -0.74919531912273, 0.081704975586136
160, -0.62236339618111, 0.59476374470435, 0.50884171515234
161, -0.49503099906431, -0.77544663149929, -0.39195258853821
162, -0.43534387049743, -0.83026140549478, 0.3480541810784
163, 0.17576880681634, 0.48931677380713, 0.85420982283122
164, 0.59649457032931, 0.54772939037671, 0.58667430699257
165, 0.069878162405309, 0.91934093833127, -0.38720702670154
166, 0.15325951937321, -0.20044816835196, -0.96764252259077
167, -0.88698564833218, 0.2056978786562, -0.41345476459835
168, -0.32795518195951, 0.9329109210195, -0.14873672064576
169, 0.27190148346174, -0.53143418920009, -0.8022763151437
170, 0.50789573578233, -0.85939728336305, 0.058976528571341
171, -0.8564285835087, -0.48961782707484, 0.16372069130014
172, -0.7436452068656, -0.64256015832817, 0.18468418783181
173, -0.73673758009404, -0.58404901205819, 0.34074108879182
174, -0.84617392998383, -0.42742270624423, 0.31827584011761
175, -0.80222487588831, -0.54021941145145, 0.25416183033067
176, 0.47709037831207, -0.45490355733991, -0.75196244882411
177, 0.57139763595764, -0.24134454244558, -0.78438354996377
178, 0.69361065499725, -0.32960441971002, -0.64051946557611
179, 0.59381524417888, -0.53693704376046, -0.59923456744296
180, 0.59090337567351, -0.39569557027749, -0.70303500359543
181, -0.16200755587342, 0.7278997702154, -0.66626982248957
182, -0.077225263926133, 0.89925476406897, -0.43055444244694
183, 0.14714014569991, 0.86392554375165, -0.48164554641025
184, 0.066998510786904, 0.69279068123578, -0.71801968743566
185, -0.0069388830507009, 0.81022971799925, -0.58607137446975
186, 0.15128445761182, 0.97848624820968, -0.1402771362327
187, 0.28134137296762, 0.93328977282462, -0.22319774147081
188, 0.17076620688555, 0.92083269068599, -0.35057960344253
189, 0.03966149246806, 0.96276770240508, -0.26740478159683
190, 0.16172450999537, 0.95543394901835, -0.24696386766073
191, 0.84023800001881, 0.13099212361169, -0.52615697930949
192, 0.64265787645643, 0.15787796774012, -0.74971021143557
193, 0.772870404621, 0.28781693190223, -0.56553757732918
194, 0.74987094725368, 0.14591132547425, -0.64529330351648
195, 0.95705785738843, 0.2897905487334, -0.0078546467681808
196, 0.87758560981947, 0.45161140896796, -0.16090566406367
197, 0.79788200639699, 0.60232014346994, -0.024387468877666
198, 0.88615309484515, 0.44532868625677, 0.12812124606474
199, 0.89130669646695, 0.45309847510651, -0.016557315281295
200, -0.073678859437739, -0.15792571941113, -0.98469837657043
201, 0.062468739834163, -0.40218181135119, -0.91342621330998
202, -0.17331810917822, -0.48929678790495, -0.85472187662232
203, -0.30632695224628, -0.24623084812243, -0.91952931859752
204, -0.12418980049732, -0.32992711752374, -0.93580179021784
205, -0.20186324502278, -0.63492622529643, 0.74573448273477
206, 0.0081003577811055, -0.76437658129332, 0.64471918396629
207, 0.20747798920983, -0.70648592591821, 0.67663174657485
208, -0.0013348886026221, -0.5959945812837, 0.80298734557457
209, 0.0028079121128495, -0.68468813623538, 0.7288307565739
210, -0.78823184691812, 0.11009296813097, 0.60545032320758
211, -0.58633621631612, 0.067743364506526, 0.80723025092066
212, -0.50460249235441, 0.28441948419692, 0.81515758091235
213, -0.71310637286615, 0.32641419494011, 0.62042974970522
214, -0.65893814589768, 0.2004156926087, 0.72500625517102
215, 0.56296679259529, -0.81900279410585, -0.11091804939591
216, 0.4120360571021, -0.89064678669497, -0.19228777651658
217, 0.48710961663986, -0.80802438086264, -0.33139224690466
218, 0.63505422428489, -0.73144083798041, -0.24839571806381
219, 0.52868708480206, -0.81908572764038, -0.22268483814423
220, 0.30403612149501, -0.86465302727596, -0.39992146635156
221, 0.23236793121917, -0.93801697759618, -0.25715616710912
222, 0.034203407274941, -0.95051138708513, -0.30880127906517
223, 0.10706998274457, -0.88435690895193, -0.45436645605069
224, 0.17101003612228, -0.91778560731899, -0.35836454420544
225, 0.33655055273299, 0.14178453409717, -0.93093011088157
226, 0.52736114907155, 0.30152649991843, -0.79433745240727
227, 0.49768025158684, 0.15280814619487, -0.85379390817512
228, 0.14397429610473, 0.70410710548132, 0.69534494035109
229, 0.099398768568041, 0.55574074915054, 0.82539209139702
230, 0.27906753550895, 0.51646200488842, 0.8095605648323
231, 0.32407742439327, 0.66164023900124, 0.67617010961222
232, 0.21368897850448, 0.6155997919122, 0.7585340576819
233, -0.14504110476769, -0.93086697628698, -0.33533528055679
234, -0.0071826933918209, -0.98187971759741, -0.18936902884703
235, -0.18567870041168, -0.95884267831135, -0.21481186760078
236, -0.076401569901176, -0.96154080617916, -0.26382205777562
237, 0.52269350086836, 0.74149442152291, 0.420686970324
238, 0.54876079954948, 0.63216888883145, 0.54701378490074
239, 0.67356523086794, 0.55988031753959, 0.48253902411887
240, 0.64919459251217, 0.6716429853029, 0.3569903098774
241, 0.60274881886489, 0.65563479644178, 0.45479322230187
242, 0.57402605345467, 0.46728553021804, -0.67241231636854
243, 0.56569853132485, 0.61772290487263, -0.54626329224343
244, 0.77558159374702, 0.44489066333342, -0.4478230555918
245, 0.68252666073538, 0.4616141928391, -0.56663012129158
246, 0.27024442601672, 0.40102818357417, -0.87529671893941
247, 0.3187761506239, 0.5684005422653, -0.75848703966905
248, 0.42983513841358, 0.44152497718078, -0.78758964461862
249, 0.043395977137757, 0.5379632066535, -0.84185056717647
250, 0.21150978989298, 0.25417318300882, -0.94374763672212
251, -0.015642412786813, 0.39513414562036, -0.91849024049637
252, 0.12878662351567, 0.40209483816498, -0.90649530981937
253, 0.4956974115948, 0.82552287208129, -0.26980745691856
254, 0.35461441536783, 0.86795899518978, -0.34770073207067
255, 0.42348323634807, 0.89413668478393, -0.14553878333892
256, 0.39153849133319, 0.8860810892605, -0.24810867187476
257, 0.30419862962631, 0.95246742349395, -0.01640124739997
258, 0.4516269206611, 0.8866166325641, 0.099719964875959
259, 0.56814043739667, 0.82240672001883, -0.029387586879216
260, 0.44098360985362, 0.89721811475452, -0.023089183545973
261, 0.2112992479388, 0.9178800559261, 0.33592980033572
262, 0.047621285329179, 0.91043235929808, 0.41090769319462
263, 0.12542107164696, 0.83327064337567, 0.53845110239949
264, 0.28952715186157, 0.83844398656208, 0.46172038046074
265, 0.16984004993478, 0.88163165160526, 0.44031805359981
266, -0.48320333113403, 0.82887881737261, 0.28191212618822
267, -0.48676129857197, 0.86570252361341, 0.11671580365099
268, -0.64325790404769, 0.75756793769538, 0.11095083891595
269, -0.63823302486308, 0.71873905203828, 0.27581294576079
270, -0.56752359033734, 0.79920822105336, 0.19794745214662
271, -0.36617006732691, 0.80747926934012, -0.46248968786315
272, -0.28666707369003, 0.56420336811166, -0.77427162434991
273, -0.49140874760362, 0.65285149680856, -0.57645673375672
274, -0.331661143537, 0.70061061826646, -0.63177974598749
275, 0.28007717118835, -0.58503857764013, -0.76110882326508
276, 0.19176164596566, -0.69485026751856, -0.69311656802151
277, 0.031505093597467, -0.66930446891977, -0.74231998286551
278, 0.12161986395181, -0.56396884514367, -0.81679113021608
279, 0.15706533758174, -0.63249233966987, -0.75847473259778
280, 0.49465619336048, 0.11858510987102, 0.86096040680568
281, 0.75423502720759, 0.13659026679383, 0.64224031541967
282, 0.54386962058574, 0.25620459685817, 0.79910264694385
283, 0.63349298907464, 0.12974150157339, 0.76279340293605
284, 0.16295464081324, -0.94671341712073, 0.27781197037028
285, 0.14312414384817, -0.9813959299725, 0.12797463842945
286, 0.29691124116526, -0.94899100701584, 0.10611212688832
287, 0.31625723270842, -0.91339068578169, 0.25631780641788
288, 0.23135566287216, -0.95350328740594, 0.19314771073728
289, -0.92508917288433, -0.37213175710391, 0.075683403510606
290, -0.85969306815634, -0.50718335510754, -0.060769012381203
291, -0.78386175517007, -0.62031117340377, 0.027835174368679
292, -0.86357926523627, -0.50154340312635, 0.051817636326091
293, -0.38199036231079, -0.55263535801183, 0.7407276990749
294, -0.37293963005521, -0.69590955543288, 0.6136985603629
295, -0.18951851504478, -0.76913225009469, 0.61034278427741
296, -0.2894571073364, -0.66939612614243, 0.68419544672407
297, -0.56531330060708, -0.28802806861866, -0.77295582269916
298, -0.6212307312226, -0.40526941072401, -0.67069298737653
299, -0.73641581105114, -0.28130280027879, -0.61527269384331
300, -0.67895388701157, -0.16417475395461, -0.71558945595629
301, -0.6552243094371, -0.287008621208, -0.6987897793149
302, -0.4464627132298, -0.63532782448969, -0.63010284964019
303, -0.63664462649725, -0.51226804979972, -0.5764243790009
304, -0.43351432600458, -0.53157589987075, -0.72766227868799
305, -0.53964225804599, -0.52592479172971, -0.65741109419836
306, -0.27000058665591, -0.73128215561423, -0.62635939530406
307, -0.19428111511287, -0.62190012492493, -0.75861392218233
308, -0.045599042383655, -0.78541017762288, -0.61729375520905
309, -0.121039527491, -0.70979975035694, -0.69392632690941
310, -0.88398471048756, 0.39778067360374, 0.24564520620518
311, -0.77011167678651, 0.57595160333438, 0.27424032506841
312, -0.7804866066174, 0.61878493488207, 0.089139560543238
313, -0.89527964754468, 0.44138916703745, 0.060414865010618
314, -0.84115801281735, 0.5136677716763, 0.16911125868572
315, -0.30784449086285, -0.94712306601544, 0.090496780422892
316, -0.49394433681745, -0.86333181681361, 0.10333037405952
317, -0.50282676847606, -0.86401331581169, -0.02542107401379
318, -0.31634201236886, -0.94785278909935, -0.038766240558124
319, -0.40807348917367, -0.91236772907472, 0.032575364566919
320, -0.93490423920219, -0.32121631890709, -0.15091103335921
321, -0.97589938189061, -0.21528175200329, -0.035695429398179
322, -0.98942473844701, -0.089731424998842, -0.11396033659454
323, -0.95333443879637, -0.19641240440466, -0.22929373127234
324, -0.96923626558798, -0.20700051179314, -0.13316099123411
325, 0.16812016045721, -0.79416149351024, -0.58398898437678
326, -0.10698469277903, -0.86891029332005, -0.48326926001293
327, 0.030909444768256, -0.84119425386932, -0.53984889874978
328, -0.1299499955992, -0.85077188021663, 0.50921528499881
329, 0.068745067042374, -0.83953026225632, 0.53894624454873
330, -0.061046424546468, -0.81220403929145, 0.58017060646739
331, -0.94145853093242, 0.29458686983706, -0.1639341656098
332, -0.96749803409051, 0.25234115625036, 0.016477102088211
333, -0.86749919829878, 0.48272919266465, -0.12007359201881
334, -0.92699607223552, 0.37141631782028, -0.052232182768265
335, -0.6703077664258, -0.74201944317512, -0.0097285260622587
336, -0.67119255999837, -0.72785333059265, -0.14046379087874
337, -0.50394978176073, -0.84960196582575, -0.15559921956209
338, -0.59171199726056, -0.80182783028256, -0.08336091939436
339, -0.31775162632905, 0.90622553682132, 0.27890711783345
340, -0.46646574383847, 0.77115758531176, 0.43327322608414
341, -0.30192771193745, 0.85030238278099, 0.43107483642771
342, -0.3953014603823, 0.84550179919013, 0.3589755743583
343, -0.60135121219187, 0.12998293300191, -0.78834076180519
344, -0.72943685598146, 0.24489332309725, -0.63870895832004
345, -0.61532569500277, 0.472641699155, -0.63085982063311
346, -0.4937452836882, 0.36105315969582, -0.79111074490827
347, -0.61880237573568, 0.3071393180197, -0.72301387200404
348, -0.06567217351913, -0.40526741351375, 0.91183632805956
349, 0.076255103892185, -0.13659026679378, 0.98768834059515
350, -0.16380204132295, -0.038379913367158, 0.98574635353541
351, -0.30852340921697, -0.30278490661945, 0.90173976638972
352, -0.11837328107058, -0.22667234087622, 0.96675095873254
353, -0.85772977642409, -0.41847437980155, -0.2986282372536
354, -0.77296746615196, -0.59969901646508, -0.20708062662025
355, -0.86558755845788, -0.46682029820049, -0.18120978955601
356, -0.9061992453448, 0.10717383000208, 0.40904363813558
357, -0.91930848860607, -0.096960653736509, 0.38140599681155
358, -0.80876827245203, -0.093099462910313, 0.5807119522455
359, -0.8660379769396, 0.0071758176330847, 0.49992672477041
360, 0.96114750876438, 0.14359836472988, -0.23574345387077
361, 0.98658693160508, 0.14681803475614, 0.071349078875736
362, 0.98564679626141, 0.14687435712152, -0.08323650785419
363, 0.64224031541991, -0.13659026679433, 0.7542350272073
364, 0.37267288549377, -0.13304238369944, 0.91837609102008
365, 0.5612628461277, -0.26975408056607, 0.7824428116959
366, 0.51389558065036, -0.13652716459708, 0.84691892499525
367, 0.91578330938123, 0.13659026679383, 0.37773539584734
368, 0.77830144328413, 0.27293142438142, 0.56546909815388
369, 0.84524561273593, 0.13819825962014, 0.51619869739145
370, -0.0090512254004067, -0.96845251835849, 0.24903372262376
371, -0.15707319599693, -0.9755555221208, 0.15368615539117
372, -0.0045763408631922, -0.99945216228129, 0.032778535897233
373, -0.0070387051064961, -0.98987386933281, 0.1417751016311
374, 0.69238349618498, -0.61124478514931, -0.38338610673634
375, 0.81101025992995, -0.51683879665222, -0.27411679365452
376, 0.7560287054164, -0.63937519373117, -0.14007126124808
377, 0.73014800875592, -0.63028706996408, -0.26385999080166
378, 0.91337325880154, 0.28317994848286, 0.29250368695711
379, 0.96318194735142, 0.14347460176419, 0.22736660912485
380, 0.962139323515, -0.13532208531725, 0.23659217098522
381, 0.96260192007689, -0.27088024508018, 0.0046299340803661
382, 0.98787697655055, -0.13557292140781, -0.075624481368728
383, 0.98719639154521, -0.13711403092466, 0.081504766999919
384, 0.84075065654461, -0.54126180769521, -0.013190490905285
385, 0.90334579967374, -0.40231543196611, -0.1486898093809
386, 0.90088751077785, -0.41074993654578, 0.14030745722205
387, 0.91179111854891, -0.41063259288282, -0.0042225345060768
388, 0.91073860222598, 0.27464085279392, -0.30842762585749
389, 0.9120627218635, 0.13902314499619, -0.38576437956649
390, -0.15401399108671, -0.98591697272156, -0.065172183092945
391, 0.14273081981223, -0.98546583815374, -0.092114032088865
392, -0.0056994506636587, -0.99687330535709, -0.078810718360957
393, -0.22600511149842, 0.19544269042439, -0.9543185235215
394, -0.26255877596275, 0.38827287862451, -0.88334990852412
395, -0.41104475778568, -0.39808621592665, -0.82010339091246
396, -0.30623801766749, -0.5164885353107, -0.79966109660761
397, -0.28423690841624, 0.76258360837647, 0.58109863201483
398, -0.1023405720442, 0.81377132236918, 0.57210369881971
399, -0.11966031398124, 0.89933870400061, 0.42056070280568
400, -0.20367706183207, 0.8384763924422, 0.50544336359335
401, 0.77693417722145, 0.58070253223991, 0.2432238748877
402, 0.80921241483957, 0.42171712904678, 0.40905981315457
403, 0.85698801693561, 0.43798988618065, 0.27154446860916
404, 0.33214921689375, 0.81225929276912, -0.47949112507645
405, 0.25299229638278, 0.87250205178838, -0.4180132385416
406, -0.3471614802071, -0.91862215847159, -0.18871204684761
407, -0.25258928262507, -0.95912349162405, -0.12759616811586
408, 0.11408047417591, -0.91158866541532, 0.3949579097804
409, -0.05856910234159, -0.92928042156016, 0.36470201309545
410, 0.05264452515424, -0.94470890689464, 0.32365666253798
411, -0.9964495977109, 0.053403545188788, -0.065086562230963
412, -0.97514999525189, 0.10655667647068, -0.19423738430015
413, -0.96942074537337, -0.036663007399428, -0.24265045297336
414, -0.98792041709719, 0.0085873567576807, -0.15472396965703
415, -0.62923568106307, -0.76306069474207, 0.14765105423545
416, -0.71167415738701, -0.69696400889215, 0.088096901287561
417, 0.29232637260233, -0.2692867662898, 0.91762188802488
418, 0.22705234819684, -0.13628907792693, 0.96429897771186
419, 0.69885077111103, 0.70755224523652, 0.10477318348832
420, 0.67238232593279, 0.72296356273564, -0.15882598883623
421, 0.69181853884118, 0.72155644895348, -0.027265367947243
422, 0.34018375859729, 0.70857333692365, -0.61822231970991
423, 0.55798863304265, 0.72257110067016, -0.40809274665389
424, 0.45446974566715, 0.72380940271414, -0.51918898179356
425, -0.49309128739356, -0.19016182292135, 0.84894020013178
426, -0.56678584373387, -0.44462033886723, 0.69358962045901
427, -0.44544114213663, -0.37839830160088, 0.81141660954012
428, 0.37299426840802, -0.73704656741458, -0.56359349995998
429, 0.55286912387222, -0.673446424536, -0.49071951779854
430, 0.43415689873825, -0.77944257493977, -0.45163819551633
431, 0.3147907286701, 0.92356559640568, 0.21893694589807
432, 0.14952503247063, 0.98065986072649, 0.12628737951421
433, 0.045258464522084, 0.96901016596841, 0.24283939062471
434, 0.1816035254638, 0.95546245841114, 0.2326191095032
435, 0.030647845819125, 0.11151516247677, -0.99329002717455
436, 0.18589582825461, 0.1282363235066, -0.97416537937408
437, 0.73097242079071, 0.61514982998075, -0.29541497375391
438, 0.62118780577857, 0.72953951932416, -0.28617791615756
439, 0.82430104622271, -0.37541002163926, -0.4237866218381
440, 0.91788797053256, -0.26098833986233, -0.29894273700413
441, 0.87297043699451, -0.39274687983396, -0.28926199977582
442, 0.83913865069538, -0.12419221652844, 0.52954944836426
443, 0.91322402469034, -0.26000413951241, 0.31371918679734
444, 0.91224025492849, -0.13145754766499, 0.38799050304088
445, -0.12256153251435, 0.95980328709157, 0.25250014026916
446, -0.037774288059982, 0.94177506933527, 0.33411498311226
447, 0.66275855133859, -0.67475093791145, 0.32474955645112
448, 0.61762695544618, -0.76526263664226, 0.18141124790271
449, 0.75070914308909, -0.65284004903086, 0.10117140338965
450, 0.79272123898436, -0.55884955879128, 0.24347527164354
451, 0.7120515203315, -0.66853785659212, 0.21456879245782
452, -0.78731266659054, -0.088964374227174, -0.61010171704762
453, -0.76782597002384, 0.047562525019527, -0.63889051172382
454, -0.66274245715548, -0.028059099134962, -0.74832153680036
455, -0.72858448157858, -0.058658885896181, -0.68243958583034
456, -0.61948724960391, 0.78251158645948, -0.062539304719972
457, -0.75870744484167, 0.64593527136642, -0.084443107158731
458, -0.70671483313254, 0.70737128622369, 0.013416708116484
459, -0.81719116218014, -0.27625772784919, -0.50584609542654
460, -0.8632496991932, -0.082306439585266, -0.49802169314765
461, -0.80692810081718, -0.18378516197861, -0.56132882907265
462, 0.91671590804072, -0.12535406176093, -0.37936565889009
463, 0.96411928845961, -0.13204665021478, -0.23029910939294
464, -0.69876022888286, -0.15699266903856, 0.6979165024555
465, -0.36381106605297, 0.036163599478688, 0.93077048851484
466, -0.54534306408271, -0.062015187576307, 0.83591570087345
467, -0.42349244895041, 0.71979982396141, 0.5500385069312
468, -0.42220757749618, 0.61154037241391, 0.66914806613534
469, -0.28301297738686, 0.65445949172001, 0.70113224738862
470, -0.35525700737022, 0.69127939679171, 0.62922591673074
471, -0.4011842343862, 0.023401562262767, -0.91569840939232
472, -0.46273500748869, -0.13590512373479, -0.87601718601125
473, -0.53837925978605, -0.0029357319882539, -0.84269754604479
474, 0.19505793406066, 0.63714382665899, -0.74565417353511
475, 0.51885696553189, -0.1365902668107, -0.84387827814894
476, 0.29886867999915, -0.2380499488872, -0.92412647075515
477, 0.23303101768497, -0.10104480603052, -0.96720550658635
478, 0.38064247389181, -0.12029907753597, -0.91686391520962
479, -0.25819656463206, 0.19270047054733, 0.94667896494168
480, -0.24858990129506, 0.40934207727578, 0.87786224702151
481, -0.48576515932197, 0.49062176238552, 0.72341032358035
482, -0.38051406034284, 0.35041826777191, 0.85581311481721
483, -0.75576954162138, -0.47068513987732, -0.45526684379173
484, -0.91172004851541, -0.22173017522197, -0.34583562935459
485, -0.8441643552576, -0.35047729944259, -0.40565034683572
486, -0.93083892464936, -0.061976070844755, -0.3601358951844
487, -0.94627924626028, -0.12990261841818, -0.29610960441225
488, 0.78630979395914, -0.23020008647165, -0.57334529570964
489, 0.75680751371629, -0.10439358376155, -0.64524752370853
490, 0.84707725507212, -0.11625523021206, -0.51859892536316
491, -0.71646971973659, -0.38224668765215, 0.58357399743266
492, -0.67858839693398, -0.55568174716752, 0.48034943885824
493, -0.52706719816162, -0.6144961697129, 0.5870218275586
494, -0.62875682279237, -0.5039652192796, 0.59218571035488
495, 0.38136234818668, 0.74602410144235, 0.54590365400194
496, 0.43272139150021, 0.8359365299406, 0.33758304941006
497, 0.40948574308432, 0.79652663864382, 0.44482214439197
498, 0.83642357525313, 0.45338347393423, -0.30795945889694
499, 0.77443271967462, -0.26044444295755, 0.57656105906478
500, 0.74906830735962, -0.1317118891789, 0.64926777923928
501, -0.59079958402639, 0.67870658317893, 0.43624904064515
502, -0.54764969153077, 0.62776322949914, 0.55316646956866
503, -0.50982292911382, 0.70309176304298, 0.49572427183962
504, -0.61183516668144, 0.5071041135674, 0.60704460035067
505, -0.72300205417165, 0.53641389565494, 0.43534832285409
506, -0.82179590040021, 0.3543894175692, 0.44616100098548
507, -0.72531141235663, 0.43563019428858, 0.53305692841321
508, -0.99110795757459, -0.049710965288246, 0.12342542834613
509, -0.96682815711187, 0.1505503983909, 0.20634411103786
510, -0.99212669776862, 0.10285778662587, 0.071448522064228
511, 0.73118846423988, -0.4737508482872, -0.49083965152551
512, 0.64790005520978, -0.5788345770359, -0.49515255314583
513, -0.084307842268785, 0.68237267955579, 0.72612651372046
514, 0.02117568208028, 0.76751202828999, 0.64068469383826
515, 0.7653998934006, -0.35506393726454, -0.53674258600986
516, -0.14256555047835, 0.98359791420316, 0.11049980539348
517, -0.33748340504452, 0.93121956823964, 0.13760474936257
518, -0.23172169658443, 0.9527325097941, 0.19648363828439
519, -0.9487767409075, -0.20926516828517, 0.23670822811117
520, -0.97156812250292, -0.21389242865109, 0.1015155766466
521, 0.32491542134164, -0.94531865281314, -0.028330436246831
522, 0.28064241704024, -0.94898071315702, -0.14378956781983
523, -0.74302240452705, 0.48742010728629, -0.4586276762079
524, -0.62171996525865, 0.66933272769825, -0.40676526945008
525, -0.62543764759043, 0.57749812070605, -0.52471294014684
526, -0.70534982197419, 0.66086347706454, -0.25640025999042
527, -0.81575150987276, 0.49898873614705, -0.29250592359589
528, -0.79406445901894, 0.57735359296353, -0.19006436703143
529, -0.15026322801946, -0.054164629995112, -0.98716115967083
530, -0.19062486356294, 0.071064753094656, -0.97908731084577
531, 0.24789294355465, 0.22691795785261, 0.94183720936254
532, 0.20747293443134, 0.10850684007077, 0.97220432375931
533, 0.35536027366796, 0.11485803120112, 0.9276457883089
534, 0.48935157797298, -0.84107940509484, 0.23047877876425
535, 0.48359336176243, -0.79336513484512, 0.36974210373108
536, 0.30991363315545, -0.86476596656187, 0.39513714462285
537, 0.40271643610582, -0.85933613838346, 0.31521559821562
538, 0.56726211753529, 0.794298874408, 0.21749250130423
539, 0.67983790942144, 0.69541103030588, 0.23286029254126
540, -0.52025508519641, 0.56273779875106, 0.64238681196308
541, 0.64626383277583, 0.41362204124909, 0.64129545876984
542, 0.49223477491732, 0.54740590808653, 0.67679516705873
543, 0.38919412118825, 0.39085091800953, 0.83412438875962
544, 0.52467232997363, 0.40704454538688, 0.74768555170662
545, 0.26592415453254, -0.79727341506515, 0.54188508529623
546, 0.19135004523396, -0.86065913430997, 0.47185910473126
547, 0.48208835567639, -0.70480406748758, 0.52042486852014
548, 0.42570331505471, -0.61896434403455, 0.66004532296298
549, 0.34925649997812, -0.71451330091498, 0.60621006263392
550, -0.64536315179666, -0.66927215401094, -0.3682135062279
551, -0.53682425676365, -0.7894627512409, -0.29760423678653
552, -0.66317837852063, -0.70330533645153, -0.25603914150292
553, 0.64572803590781, -0.12196983926419, -0.75376300118307
554, 0.440220626168, 0.65240723467327, 0.61690404476079
555, 0.44554094007105, 0.86773410246685, 0.22029706792571
556, 0.80962192587013, -0.41113367688441, 0.41890504518547
557, 0.86472176309043, -0.41511401481016, 0.28273066184262
558, -0.82606149848176, -0.31727188494108, 0.46579067374948
559, -0.89631971446776, -0.26598802248376, 0.35476941997812
560, -0.27929528175158, 0.90854639558313, -0.31070499298244
561, -0.16197427762549, 0.97562557527983, -0.14805090424443
562, -0.12149735960719, 0.94842712696054, -0.292787254596
563, -0.68643354079294, 0.63272900994125, 0.35841734619467
564, -0.90809037781129, 0.25574787898654, 0.33160954166071
565, -0.59795692154067, 0.77412110886101, -0.20780767261436
566, -0.51290476265171, 0.78082719980562, -0.35670378256042
567, -0.61389477353095, 0.7263097054554, -0.30920449348719
568, -0.27987328806523, -0.90691769699239, 0.31491464480011
569, -0.42739253323308, -0.86918094956334, 0.24871690624638
570, -0.29565796640096, -0.93325849572284, 0.20399741926012
571, -0.34508845153309, -0.80448833526363, -0.48343818533836
572, -0.51956725502796, -0.70355982617516, -0.48482310020779
573, -0.39869597802764, -0.72541413210334, -0.56108453378199
574, 0.45615777487167, -0.8818653457973, 0.1193046365651
575, 0.58515727357876, -0.80783630370203, 0.07065034747903
576, 0.539777546898, -0.82810269635203, 0.15128160548883
577, -0.38176430004016, -0.86236263360287, -0.33254579741801
578, -0.44538257973437, -0.86103638104073, -0.24546019675995
579, -0.77156553662641, -0.24046272269469, 0.58895186703554
580, -0.50788033315029, -0.7436957155262, 0.43471168595649
581, -0.34920459864161, -0.81878349958131, 0.45568599835954
582, -0.44308557968883, -0.72485853084035, 0.52749907994212
583, 0.66318919440602, -0.74801425360346, -0.025588451089241
584, 0.75906409029955, -0.65072126965705, -0.019584076021873
585, -0.82164423542554, 0.29488204802259, -0.48779640030035
586, -0.89543970924712, 0.3070450957563, -0.32235234802221
587, -0.82695076126423, 0.401005360069, -0.39414101491781
588, -0.56440018159947, -0.77122201397603, 0.29439606004367
589, -0.53259180835134, -0.82238500958773, 0.2000721411952
590, 0.48300814236428, -0.87549981310265, -0.014255232970111
591, 0.39236428777069, -0.91866269635581, 0.04592511302611
592, -0.045559501117638, 0.43547966872547, 0.89904493212779
593, -0.16813467406499, 0.55370238988768, 0.81556385084782
594, -0.92840682054741, 0.11886140773559, -0.35204082336026
595, -0.94275314981614, 0.20856572892714, -0.26022458613445
596, 0.63308017947392, -0.43816481832818, 0.63813876103611
597, 0.65945507256282, -0.58356337933506, 0.47389111573253
598, 0.72867878901114, -0.42893735000278, 0.53389134870108
599, -0.004979893949102, 0.999985731263, 0.0019333718355481
600, 0.15148163742995, 0.98843497360641, -0.0070438961680617
601, 0.73525554644244, 0.42172623830634, 0.53060933025119
602, -0.20679479250829, -0.88579915731546, 0.41544646669659
603, 0.39345383183559, -0.63157643057284, -0.66806084644945
604, 0.28420356518765, -0.72059532616187, -0.63243237539543
605, -0.64670720725902, -0.59568493654466, -0.47637091058652
606, -0.24777588984198, -0.87625009409222, -0.41327095351161
607, 0.57769938552583, -0.69597792876115, 0.42647173721176
608, 0.35942504011722, -0.4560265151069, 0.81415812841007
609, 0.50293277238546, -0.45327037301346, 0.73593790187007
610, 0.14018225809426, 0.35618816615739, 0.92383923103808
611, 0.2670407808068, 0.37655802926745, 0.88707004908311
612, -0.05586956531194, 0.11767690722614, 0.99147906542576
613, -0.21259879695437, 0.077812316913516, 0.97403644432337
614, -0.62912252102315, -0.6712621571924, 0.3919336294105
615, -0.29805270578374, 0.95377380567413, -0.038472226149319
616, -0.44912057594308, 0.89145923035019, -0.059926195340542
617, -0.39595081433113, 0.91743829218177, 0.039114353747922
618, 0.1482486110288, -0.44402001514823, 0.88366768384716
619, -0.86492095838001, 0.098628993116669, -0.49212199450116
620, -0.80338652483941, 0.17324459845428, -0.56969851747471
621, -0.90328614211443, 0.018498101296374, -0.42863966885072
622, -0.42679084443481, 0.88070706569663, -0.2054376779918
623, -0.39971301889147, 0.85243011425163, -0.33703472053428
624, -0.5273308630114, 0.83888732970622, -0.13487108279401
625, -0.44095965885783, -0.2695160016952, -0.85610496090738
626, -0.0047937215602492, 0.22523884988409, 0.97429178418813
627, 0.076739774680186, 0.11371530677495, 0.99054522157603
628, -0.15327793447911, 0.9880025122267, -0.01889207864535
629, 0.35899071517277, -0.40566973113261, -0.84056988743503
630, 0.38119530366396, -0.52332746653168, -0.76211449483531
631, 0.5766073719543, -0.81677099696352, -0.020225655172881
632, 0.04755768014772, 0.39788488024008, 0.91620188230286
633, 0.21325668223141, -0.40869085689233, -0.88740823242534
634, 0.041339013311166, -0.079681282899844, -0.99596284023747
******* E L E M E N T S *************
*ELEMENT, type=T3D3, ELSET=Line2
3, 2, 12, 3
4, 3, 13, 4
5, 4, 14, 5
6, 5, 15, 6
7, 6, 16, 7
8, 7, 17, 8
9, 8, 18, 9
10, 9, 19, 10
11, 10, 20, 11
12, 11, 21, 1
*ELEMENT, type=M3D9, ELSET=Surface1
13, 123, 56, 135, 122, 171, 172, 173, 174, 175
14, 150, 30, 152, 117, 176, 177, 178, 179, 180
15, 127, 97, 165, 141, 181, 182, 183, 184, 185
16, 156, 126, 62, 165, 186, 187, 188, 189, 190
17, 107, 5, 4, 26, 191, 14, 192, 193, 194
18, 109, 24, 140, 101, 195, 196, 197, 198, 199
19, 148, 166, 102, 138, 200, 201, 202, 203, 204
20, 128, 82, 81, 146, 205, 206, 207, 208, 209
21, 61, 99, 100, 108, 210, 211, 212, 213, 214
22, 115, 69, 158, 116, 215, 216, 217, 218, 219
23, 105, 158, 130, 104, 220, 221, 222, 223, 224
24, 26, 4, 3, 22, 192, 13, 225, 226, 227
25, 39, 83, 163, 106, 228, 229, 230, 231, 232
26, 133, 104, 130, 65, 233, 222, 234, 235, 236
27, 153, 92, 164, 119, 237, 238, 239, 240, 241
28, 107, 26, 27, 32, 193, 242, 243, 244, 245
29, 26, 22, 60, 27, 226, 246, 247, 242, 248
30, 127, 60, 22, 144, 249, 246, 250, 251, 252
31, 34, 33, 62, 126, 253, 254, 187, 255, 256
32, 34, 126, 36, 35, 255, 257, 258, 259, 260
33, 37, 38, 40, 39, 261, 262, 263, 264, 265
34, 44, 43, 75, 45, 266, 267, 268, 269, 270
35, 96, 97, 127, 94, 271, 181, 272, 273, 274
36, 169, 137, 87, 102, 275, 276, 277, 278, 279
37, 23, 10, 9, 98, 280, 19, 281, 282, 283
38, 76, 67, 66, 68, 284, 285, 286, 287, 288
39, 123, 52, 55, 56, 289, 290, 291, 171, 292
40, 128, 89, 88, 82, 293, 294, 295, 205, 296
41, 78, 74, 72, 73, 297, 298, 299, 300, 301
42, 85, 84, 72, 74, 302, 303, 298, 304, 305
43, 86, 85, 102, 87, 306, 307, 277, 308, 309
44, 48, 46, 45, 47, 310, 311, 312, 313, 314
45, 64, 63, 57, 59, 315, 316, 317, 318, 319
46, 54, 52, 50, 51, 320, 321, 322, 323, 324
47, 86, 87, 105, 104, 308, 325, 223, 326, 327
48, 81, 82, 88, 77, 206, 295, 328, 329, 330
49, 53, 49, 48, 47, 331, 332, 313, 333, 334
50, 59, 57, 55, 58, 317, 335, 336, 337, 338
51, 41, 43, 44, 42, 339, 266, 340, 341, 342
52, 93, 79, 95, 94, 343, 344, 345, 346, 347
53, 128, 31, 1, 145, 348, 349, 350, 351, 352
54, 52, 54, 129, 55, 320, 353, 354, 290, 355
55, 99, 61, 155, 103, 210, 356, 357, 358, 359
56, 6, 24, 109, 7, 360, 195, 361, 16, 362
57, 29, 10, 11, 110, 363, 20, 364, 365, 366
58, 8, 25, 98, 9, 367, 368, 281, 18, 369
59, 66, 67, 131, 64, 285, 370, 371, 372, 373
60, 116, 113, 112, 115, 374, 375, 376, 218, 377
61, 7, 109, 25, 8, 361, 378, 367, 17, 379
62, 8, 111, 28, 7, 380, 381, 382, 17, 383
63, 114, 112, 28, 111, 384, 385, 381, 386, 387
64, 24, 6, 5, 107, 360, 15, 191, 388, 389
65, 64, 65, 130, 66, 390, 234, 391, 372, 392
66, 144, 93, 94, 127, 393, 346, 272, 251, 394
67, 102, 85, 74, 138, 307, 304, 395, 202, 396
68, 41, 42, 139, 40, 341, 397, 398, 399, 400
69, 101, 119, 25, 109, 401, 402, 378, 198, 403
70, 165, 62, 33, 141, 188, 254, 404, 183, 405
71, 64, 59, 133, 65, 318, 406, 235, 390, 407
72, 76, 77, 131, 67, 408, 409, 370, 284, 410
73, 50, 49, 134, 51, 411, 412, 413, 322, 414
74, 55, 57, 135, 56, 335, 415, 172, 291, 416
75, 1, 31, 110, 11, 349, 417, 364, 21, 418
76, 35, 101, 140, 34, 419, 197, 420, 259, 421
77, 32, 27, 141, 33, 243, 422, 404, 423, 424
78, 89, 128, 145, 91, 293, 351, 425, 426, 427
79, 116, 158, 105, 150, 217, 220, 428, 429, 430
80, 37, 36, 125, 38, 431, 432, 433, 261, 434
81, 22, 3, 2, 144, 225, 12, 435, 250, 436
82, 33, 34, 140, 32, 253, 420, 437, 423, 438
83, 112, 113, 142, 28, 375, 439, 440, 385, 441
84, 111, 8, 9, 118, 380, 18, 442, 443, 444
85, 40, 38, 125, 41, 262, 433, 445, 399, 446
86, 121, 80, 159, 114, 447, 448, 449, 450, 451
87, 78, 73, 132, 79, 300, 452, 453, 454, 455
88, 47, 45, 75, 136, 312, 268, 456, 457, 458
89, 72, 71, 132, 73, 459, 460, 452, 299, 461
90, 7, 28, 142, 6, 382, 440, 462, 16, 463
91, 99, 91, 145, 100, 464, 425, 465, 211, 466
92, 42, 70, 151, 139, 467, 468, 469, 397, 470
93, 79, 93, 148, 78, 343, 471, 472, 454, 473
94, 127, 141, 27, 60, 184, 422, 247, 249, 474
95, 4, 30, 166, 3, 475, 476, 477, 13, 478
96, 108, 100, 157, 151, 212, 479, 480, 481, 482
97, 71, 72, 129, 54, 459, 483, 353, 484, 485
98, 54, 51, 134, 71, 323, 413, 486, 484, 487
99, 6, 142, 152, 5, 462, 488, 489, 15, 490
100, 89, 91, 122, 90, 426, 491, 492, 493, 494
101, 39, 92, 153, 37, 495, 237, 496, 264, 497
102, 32, 140, 24, 107, 437, 196, 388, 244, 498
103, 10, 29, 118, 9, 363, 499, 442, 19, 500
104, 42, 44, 160, 70, 340, 501, 502, 467, 503
105, 108, 160, 46, 61, 504, 505, 506, 213, 507
106, 49, 50, 155, 48, 411, 508, 509, 332, 510
107, 113, 116, 150, 117, 374, 429, 179, 511, 512
108, 39, 40, 139, 83, 263, 398, 513, 228, 514
109, 113, 117, 152, 142, 511, 178, 488, 439, 515
110, 43, 41, 125, 124, 339, 445, 516, 517, 518
111, 52, 123, 155, 50, 289, 519, 508, 321, 520
112, 66, 130, 158, 69, 391, 221, 216, 521, 522
113, 94, 95, 143, 96, 345, 523, 524, 273, 525
114, 47, 136, 143, 53, 457, 526, 527, 333, 528
115, 93, 144, 2, 148, 393, 435, 529, 471, 530
116, 10, 23, 154, 11, 280, 531, 532, 20, 533
117, 68, 80, 149, 76, 534, 535, 536, 287, 537
118, 35, 153, 119, 101, 538, 240, 401, 419, 539
119, 151, 70, 160, 108, 468, 502, 504, 481, 540
120, 23, 98, 164, 106, 282, 541, 542, 543, 544
121, 77, 76, 149, 81, 408, 536, 545, 329, 546
122, 146, 81, 149, 120, 207, 545, 547, 548, 549
123, 55, 129, 161, 58, 354, 550, 551, 336, 552
124, 30, 4, 5, 152, 475, 14, 489, 177, 553
125, 39, 106, 164, 92, 231, 542, 238, 495, 554
126, 36, 37, 153, 35, 431, 496, 538, 258, 555
127, 111, 118, 121, 114, 443, 556, 450, 386, 557
128, 122, 103, 155, 123, 558, 357, 519, 174, 559
129, 165, 97, 168, 156, 182, 560, 561, 189, 562
130, 45, 46, 160, 44, 311, 505, 501, 269, 563
131, 46, 48, 155, 61, 310, 509, 356, 506, 564
132, 136, 147, 96, 143, 565, 566, 524, 526, 567
133, 64, 131, 162, 63, 371, 568, 569, 315, 570
134, 85, 86, 161, 84, 306, 571, 572, 302, 573
135, 68, 170, 159, 80, 574, 575, 448, 534, 576
136, 59, 58, 161, 133, 337, 551, 577, 406, 578
137, 99, 103, 122, 91, 358, 558, 491, 464, 579
138, 89, 90, 162, 88, 493, 580, 581, 294, 582
139, 114, 159, 115, 112, 449, 583, 376, 384, 584
140, 53, 143, 95, 167, 527, 523, 585, 586, 587
141, 57, 63, 162, 135, 316, 569, 588, 415, 589
142, 66, 69, 170, 68, 521, 590, 574, 286, 591
143, 139, 151, 157, 83, 469, 480, 592, 513, 593
144, 49, 53, 167, 134, 331, 586, 594, 412, 595
145, 118, 29, 120, 121, 499, 596, 597, 556, 598
146, 36, 126, 156, 125, 257, 186, 599, 432, 600
147, 119, 164, 98, 25, 239, 541, 368, 402, 601
148, 77, 88, 162, 131, 328, 581, 568, 409, 602
149, 87, 137, 150, 105, 276, 603, 428, 325, 604
150, 72, 84, 161, 129, 303, 572, 550, 483, 605
151, 104, 133, 161, 86, 233, 577, 571, 326, 606
152, 80, 121, 120, 149, 447, 597, 547, 535, 607
153, 29, 110, 146, 120, 365, 608, 548, 596, 609
154, 106, 163, 154, 23, 230, 610, 531, 543, 611
155, 100, 145, 1, 157, 465, 350, 612, 479, 613
156, 122, 135, 162, 90, 173, 588, 580, 492, 614
157, 43, 124, 168, 75, 517, 615, 616, 267, 617
158, 128, 146, 110, 31, 208, 608, 417, 348, 618
159, 79, 132, 167, 95, 453, 619, 585, 344, 620
160, 71, 134, 167, 132, 486, 594, 619, 460, 621
161, 96, 147, 168, 97, 566, 622, 560, 271, 623
162, 136, 75, 168, 147, 456, 616, 622, 565, 624
163, 74, 78, 148, 138, 297, 472, 203, 395, 625
164, 11, 154, 157, 1, 532, 626, 612, 21, 627
165, 125, 156, 168, 124, 599, 561, 615, 516, 628
166, 150, 137, 169, 30, 603, 275, 629, 176, 630
167, 69, 115, 159, 170, 215, 583, 575, 590, 631
168, 157, 154, 163, 83, 626, 610, 229, 592, 632
169, 30, 169, 102, 166, 629, 278, 201, 476, 633
170, 3, 166, 148, 2, 477, 200, 529, 12, 634
